(set-logic QF_UFLRA)
(set-option :print-success false)
(set-option :produce-models true)
(define-sort Dt () Real)
( declare-fun t_0 ( ) Real )
( declare-fun t_1 ( ) Real )
( declare-fun t_2 ( ) Real )
( declare-fun t_3 ( ) Real )
( declare-fun t_4 ( ) Real )
( declare-fun t_5 ( ) Real )
( declare-fun t_6 ( ) Real )
( declare-fun t_7 ( ) Real )
( declare-fun t_8 ( ) Real )
( declare-fun t_9 ( ) Real )
( declare-fun high_0 ( ) Real )
( declare-fun high_1 ( ) Real )
( declare-fun high_2 ( ) Real )
( declare-fun high_3 ( ) Real )
( declare-fun high_4 ( ) Real )
( declare-fun high_5 ( ) Real )
( declare-fun high_6 ( ) Real )
( declare-fun high_7 ( ) Real )
( declare-fun high_8 ( ) Real )
( declare-fun high_9 ( ) Real )
( declare-fun low_0 ( ) Real )
( declare-fun low_1 ( ) Real )
( declare-fun low_2 ( ) Real )
( declare-fun low_3 ( ) Real )
( declare-fun low_4 ( ) Real )
( declare-fun low_5 ( ) Real )
( declare-fun low_6 ( ) Real )
( declare-fun low_7 ( ) Real )
( declare-fun low_8 ( ) Real )
( declare-fun low_9 ( ) Real )
( declare-fun y_0 ( ) Real )
( declare-fun y_1 ( ) Real )
( declare-fun y_2 ( ) Real )
( declare-fun y_3 ( ) Real )
( declare-fun y_4 ( ) Real )
( declare-fun y_5 ( ) Real )
( declare-fun y_6 ( ) Real )
( declare-fun y_7 ( ) Real )
( declare-fun y_8 ( ) Real )
( declare-fun y_9 ( ) Real )
( declare-fun dhigh_0 ( ) Dt )
( declare-fun dhigh_1 ( ) Dt )
( declare-fun dhigh_2 ( ) Dt )
( declare-fun dhigh_3 ( ) Dt )
( declare-fun dhigh_4 ( ) Dt )
( declare-fun dhigh_5 ( ) Dt )
( declare-fun dhigh_6 ( ) Dt )
( declare-fun dhigh_7 ( ) Dt )
( declare-fun dhigh_8 ( ) Dt )
( declare-fun dhigh_9 ( ) Dt )
( declare-fun dlow_0 ( ) Dt )
( declare-fun dlow_1 ( ) Dt )
( declare-fun dlow_2 ( ) Dt )
( declare-fun dlow_3 ( ) Dt )
( declare-fun dlow_4 ( ) Dt )
( declare-fun dlow_5 ( ) Dt )
( declare-fun dlow_6 ( ) Dt )
( declare-fun dlow_7 ( ) Dt )
( declare-fun dlow_8 ( ) Dt )
( declare-fun dlow_9 ( ) Dt )
( declare-fun dy_0 ( ) Dt )
( declare-fun dy_1 ( ) Dt )
( declare-fun dy_2 ( ) Dt )
( declare-fun dy_3 ( ) Dt )
( declare-fun dy_4 ( ) Dt )
( declare-fun dy_5 ( ) Dt )
( declare-fun dy_6 ( ) Dt )
( declare-fun dy_7 ( ) Dt )
( declare-fun dy_8 ( ) Dt )
( declare-fun dy_9 ( ) Dt )
( assert ( and ( = t_0 1 ) ( = high_0 1 ) ( = low_0 0 ) ( or ( = y_0 0 ) ( = y_0 0.250000 ) ( = y_0 0.500000 ) ( = y_0 0.750000 ) ( = y_0 1.000000 ) ) ) )
( assert ( and ( = t_1 ( + t_0 1.0 ) ) ( = t_2 ( + t_1 1.0 ) ) ( = t_3 ( + t_2 1.0 ) ) ( = t_4 ( + t_3 1.0 ) ) ( = t_5 ( + t_4 1.0 ) ) ( = t_6 ( + t_5 1.0 ) ) ( = t_7 ( + t_6 1.0 ) ) ( = t_8 ( + t_7 1.0 ) ) ( = t_9 ( + t_8 1.0 ) ) ) )
( declare-fun int-ode_high ( Real ) Real )
( define-fun dhigh ( ) Dt 0 )
( declare-fun int-ode_low ( Real ) Real )
( define-fun dlow ( ) Dt 0 )
( declare-fun int-ode_y ( Real ) Real )
( define-fun dy_exp_inc ( ) Dt 0 )
( define-fun dy_exp_dec ( ) Dt 1 )
( define-fun dy_lin_inc ( ) Dt 2 )
( define-fun dy_lin_dec ( ) Dt 3 )
( define-fun invariant ( ( t Real ) ( high Real ) ( low Real ) ( y Real ) ( dhigh_ Dt ) ( dlow_ Dt ) ( dy_ Dt ) ) Bool ( and ( <= low y high ) ( = dhigh_ dhigh ) ( = dlow_ dlow ) ( or ( = dy_ dy_exp_inc ) ( = dy_ dy_exp_dec ) ( = dy_ dy_lin_inc ) ( = dy_ dy_lin_dec ) ) ) )
( assert ( and ( invariant t_0 high_0 low_0 y_0 dhigh_0 dlow_0 dy_0 ) ( invariant t_1 high_1 low_1 y_1 dhigh_1 dlow_1 dy_1 ) ( invariant t_2 high_2 low_2 y_2 dhigh_2 dlow_2 dy_2 ) ( invariant t_3 high_3 low_3 y_3 dhigh_3 dlow_3 dy_3 ) ( invariant t_4 high_4 low_4 y_4 dhigh_4 dlow_4 dy_4 ) ( invariant t_5 high_5 low_5 y_5 dhigh_5 dlow_5 dy_5 ) ( invariant t_6 high_6 low_6 y_6 dhigh_6 dlow_6 dy_6 ) ( invariant t_7 high_7 low_7 y_7 dhigh_7 dlow_7 dy_7 ) ( invariant t_8 high_8 low_8 y_8 dhigh_8 dlow_8 dy_8 ) ( invariant t_9 high_9 low_9 y_9 dhigh_9 dlow_9 dy_9 ) ) )
( assert ( and ( = high_1 ( int-ode_high 0 ) ) ( = high_2 ( int-ode_high 1 ) ) ( = high_3 ( int-ode_high 2 ) ) ( = high_4 ( int-ode_high 3 ) ) ( = high_5 ( int-ode_high 4 ) ) ( = high_6 ( int-ode_high 5 ) ) ( = high_7 ( int-ode_high 6 ) ) ( = high_8 ( int-ode_high 7 ) ) ( = high_9 ( int-ode_high 8 ) ) ) )
( assert ( and ( = low_1 ( int-ode_low 0 ) ) ( = low_2 ( int-ode_low 1 ) ) ( = low_3 ( int-ode_low 2 ) ) ( = low_4 ( int-ode_low 3 ) ) ( = low_5 ( int-ode_low 4 ) ) ( = low_6 ( int-ode_low 5 ) ) ( = low_7 ( int-ode_low 6 ) ) ( = low_8 ( int-ode_low 7 ) ) ( = low_9 ( int-ode_low 8 ) ) ) )
( assert ( and ( = y_1 ( int-ode_y 0 ) ) ( = y_2 ( int-ode_y 1 ) ) ( = y_3 ( int-ode_y 2 ) ) ( = y_4 ( int-ode_y 3 ) ) ( = y_5 ( int-ode_y 4 ) ) ( = y_6 ( int-ode_y 5 ) ) ( = y_7 ( int-ode_y 6 ) ) ( = y_8 ( int-ode_y 7 ) ) ( = y_9 ( int-ode_y 8 ) ) ) )

(check-sat)
(get-value (dhigh_0))
(get-value (high_0))
(get-value (t_0))
(get-value (t_1))
(get-value (dlow_0))
(get-value (low_0))
(get-value (t_0))
(get-value (t_1))
(get-value (dy_0))
(get-value (y_0))
(get-value (t_0))
(get-value (t_1))
(push 1)
(assert (and 
(= dhigh_0 0.0)
(= high_0 1.0)
(= t_0 1.0)
(= t_1 2.0)
(= (int-ode_high 0) 1.419175)
))
(assert (and 
(= dlow_0 0.0)
(= low_0 0.0)
(= t_0 1.0)
(= t_1 2.0)
(= (int-ode_low 0) 1.000000)
))
(assert (and 
(= dy_0 0.0)
(= y_0 0.0)
(= t_0 1.0)
(= t_1 2.0)
(= (int-ode_y 0) 0.000000)
))
(check-sat)
(pop 1)
(assert (not (and 
(= dhigh_0 0.0)
(= high_0 1.0)
(= t_0 1.0)
(= t_1 2.0)
(= dlow_0 0.0)
(= low_0 0.0)
(= t_0 1.0)
(= t_1 2.0)
(= dy_0 0.0)
(= y_0 0.0)
(= t_0 1.0)
(= t_1 2.0)
)))
(check-sat)
(get-value (dhigh_0))
(get-value (high_0))
(get-value (t_0))
(get-value (t_1))
(get-value (dlow_0))
(get-value (low_0))
(get-value (t_0))
(get-value (t_1))
(get-value (dy_0))
(get-value (y_0))
(get-value (t_0))
(get-value (t_1))
(push 1)
(assert (and 
(= dhigh_0 0.0)
(= high_0 1.0)
(= t_0 1.0)
(= t_1 2.0)
(= (int-ode_high 0) 1.419175)
))
(assert (and 
(= dlow_0 0.0)
(= low_0 0.0)
(= t_0 1.0)
(= t_1 2.0)
(= (int-ode_low 0) 1.000000)
))
(assert (and 
(= dy_0 0.0)
(= y_0 0.25000000)
(= t_0 1.0)
(= t_1 2.0)
(= (int-ode_y 0) 0.679571)
))
(check-sat)
(pop 1)
(assert (not (and 
(= dhigh_0 0.0)
(= high_0 1.0)
(= t_0 1.0)
(= t_1 2.0)
(= dlow_0 0.0)
(= low_0 0.0)
(= t_0 1.0)
(= t_1 2.0)
(= dy_0 0.0)
(= y_0 0.25000000)
(= t_0 1.0)
(= t_1 2.0)
)))
(check-sat)
(get-value (dhigh_0))
(get-value (high_0))
(get-value (t_0))
(get-value (t_1))
(get-value (dlow_0))
(get-value (low_0))
(get-value (t_0))
(get-value (t_1))
(get-value (dy_0))
(get-value (y_0))
(get-value (t_0))
(get-value (t_1))
(push 1)
(assert (and 
(= dhigh_0 0.0)
(= high_0 1.0)
(= t_0 1.0)
(= t_1 2.0)
(= (int-ode_high 0) 1.419175)
))
(assert (and 
(= dlow_0 0.0)
(= low_0 0.0)
(= t_0 1.0)
(= t_1 2.0)
(= (int-ode_low 0) 1.000000)
))
(assert (and 
(= dy_0 0.0)
(= y_0 0.50000000)
(= t_0 1.0)
(= t_1 2.0)
(= (int-ode_y 0) 1.359141)
))
(check-sat)
(get-value (dhigh_1))
(get-value (high_1))
(get-value (t_1))
(get-value (t_2))
(get-value (dlow_1))
(get-value (low_1))
(get-value (t_1))
(get-value (t_2))
(get-value (dy_1))
(get-value (y_1))
(get-value (t_1))
(get-value (t_2))
(push 1)
(assert (and 
(= dhigh_1 0.0)
(= high_1 1.41917500)
(= t_1 2.0)
(= t_2 3.0)
(= (int-ode_high 1) 2.236619)
))
(assert (and 
(= dlow_1 0.0)
(= low_1 1.0)
(= t_1 2.0)
(= t_2 3.0)
(= (int-ode_low 1) 2.000000)
))
(assert (and 
(= dy_1 0.0)
(= y_1 1.35914100)
(= t_1 2.0)
(= t_2 3.0)
(= (int-ode_y 1) 3.694529)
))
(check-sat)
(pop 1)
(assert (not (and 
(= dhigh_1 0.0)
(= high_1 1.41917500)
(= t_1 2.0)
(= t_2 3.0)
(= dlow_1 0.0)
(= low_1 1.0)
(= t_1 2.0)
(= t_2 3.0)
(= dy_1 0.0)
(= y_1 1.35914100)
(= t_1 2.0)
(= t_2 3.0)
)))
(check-sat)
(get-value (dhigh_1))
(get-value (high_1))
(get-value (t_1))
(get-value (t_2))
(get-value (dlow_1))
(get-value (low_1))
(get-value (t_1))
(get-value (t_2))
(get-value (dy_1))
(get-value (y_1))
(get-value (t_1))
(get-value (t_2))
(push 1)
(assert (and 
(= dhigh_1 0.0)
(= high_1 1.41917500)
(= t_1 2.0)
(= t_2 3.0)
(= (int-ode_high 1) 2.236618)
))
(assert (and 
(= dlow_1 0.0)
(= low_1 1.0)
(= t_1 2.0)
(= t_2 3.0)
(= (int-ode_low 1) 2.000000)
))
(assert (and 
(= dy_1 1.0)
(= y_1 1.35914100)
(= t_1 2.0)
(= t_2 3.0)
(= (int-ode_y 1) 0.548211)
))
(check-sat)
(pop 1)
(assert (not (and 
(= dhigh_1 0.0)
(= high_1 1.41917500)
(= t_1 2.0)
(= t_2 3.0)
(= dlow_1 0.0)
(= low_1 1.0)
(= t_1 2.0)
(= t_2 3.0)
(= dy_1 1.0)
(= y_1 1.35914100)
(= t_1 2.0)
(= t_2 3.0)
)))
(check-sat)
(get-value (dhigh_1))
(get-value (high_1))
(get-value (t_1))
(get-value (t_2))
(get-value (dlow_1))
(get-value (low_1))
(get-value (t_1))
(get-value (t_2))
(get-value (dy_1))
(get-value (y_1))
(get-value (t_1))
(get-value (t_2))
(push 1)
(assert (and 
(= dhigh_1 0.0)
(= high_1 1.41917500)
(= t_1 2.0)
(= t_2 3.0)
(= (int-ode_high 1) 2.236618)
))
(assert (and 
(= dlow_1 0.0)
(= low_1 1.0)
(= t_1 2.0)
(= t_2 3.0)
(= (int-ode_low 1) 2.000000)
))
(assert (and 
(= dy_1 2.0)
(= y_1 1.35914100)
(= t_1 2.0)
(= t_2 3.0)
(= (int-ode_y 1) 2.359141)
))
(check-sat)
(pop 1)
(assert (not (and 
(= dhigh_1 0.0)
(= high_1 1.41917500)
(= t_1 2.0)
(= t_2 3.0)
(= dlow_1 0.0)
(= low_1 1.0)
(= t_1 2.0)
(= t_2 3.0)
(= dy_1 2.0)
(= y_1 1.35914100)
(= t_1 2.0)
(= t_2 3.0)
)))
(check-sat)
(get-value (dhigh_1))
(get-value (high_1))
(get-value (t_1))
(get-value (t_2))
(get-value (dlow_1))
(get-value (low_1))
(get-value (t_1))
(get-value (t_2))
(get-value (dy_1))
(get-value (y_1))
(get-value (t_1))
(get-value (t_2))
(push 1)
(assert (and 
(= dhigh_1 0.0)
(= high_1 1.41917500)
(= t_1 2.0)
(= t_2 3.0)
(= (int-ode_high 1) 2.236618)
))
(assert (and 
(= dlow_1 0.0)
(= low_1 1.0)
(= t_1 2.0)
(= t_2 3.0)
(= (int-ode_low 1) 2.000000)
))
(assert (and 
(= dy_1 3.0)
(= y_1 1.35914100)
(= t_1 2.0)
(= t_2 3.0)
(= (int-ode_y 1) 0.359141)
))
(check-sat)
(pop 1)
(assert (not (and 
(= dhigh_1 0.0)
(= high_1 1.41917500)
(= t_1 2.0)
(= t_2 3.0)
(= dlow_1 0.0)
(= low_1 1.0)
(= t_1 2.0)
(= t_2 3.0)
(= dy_1 3.0)
(= y_1 1.35914100)
(= t_1 2.0)
(= t_2 3.0)
)))
(check-sat)
(pop 1)
(assert (not (and 
(= dhigh_0 0.0)
(= high_0 1.0)
(= t_0 1.0)
(= t_1 2.0)
(= dlow_0 0.0)
(= low_0 0.0)
(= t_0 1.0)
(= t_1 2.0)
(= dy_0 0.0)
(= y_0 0.50000000)
(= t_0 1.0)
(= t_1 2.0)
)))
(check-sat)
(get-value (dhigh_0))
(get-value (high_0))
(get-value (t_0))
(get-value (t_1))
(get-value (dlow_0))
(get-value (low_0))
(get-value (t_0))
(get-value (t_1))
(get-value (dy_0))
(get-value (y_0))
(get-value (t_0))
(get-value (t_1))
(push 1)
(assert (and 
(= dhigh_0 0.0)
(= high_0 1.0)
(= t_0 1.0)
(= t_1 2.0)
(= (int-ode_high 0) 1.419175)
))
(assert (and 
(= dlow_0 0.0)
(= low_0 0.0)
(= t_0 1.0)
(= t_1 2.0)
(= (int-ode_low 0) 1.000000)
))
(assert (and 
(= dy_0 1.0)
(= y_0 0.75000000)
(= t_0 1.0)
(= t_1 2.0)
(= (int-ode_y 0) (- 0.636294))
))
(check-sat)
(pop 1)
(assert (not (and 
(= dhigh_0 0.0)
(= high_0 1.0)
(= t_0 1.0)
(= t_1 2.0)
(= dlow_0 0.0)
(= low_0 0.0)
(= t_0 1.0)
(= t_1 2.0)
(= dy_0 1.0)
(= y_0 0.75000000)
(= t_0 1.0)
(= t_1 2.0)
)))
(check-sat)
(get-value (dhigh_0))
(get-value (high_0))
(get-value (t_0))
(get-value (t_1))
(get-value (dlow_0))
(get-value (low_0))
(get-value (t_0))
(get-value (t_1))
(get-value (dy_0))
(get-value (y_0))
(get-value (t_0))
(get-value (t_1))
(push 1)
(assert (and 
(= dhigh_0 0.0)
(= high_0 1.0)
(= t_0 1.0)
(= t_1 2.0)
(= (int-ode_high 0) 1.419175)
))
(assert (and 
(= dlow_0 0.0)
(= low_0 0.0)
(= t_0 1.0)
(= t_1 2.0)
(= (int-ode_low 0) 1.000000)
))
(assert (and 
(= dy_0 0.0)
(= y_0 0.75000000)
(= t_0 1.0)
(= t_1 2.0)
(= (int-ode_y 0) 2.038712)
))
(check-sat)
(pop 1)
(assert (not (and 
(= dhigh_0 0.0)
(= high_0 1.0)
(= t_0 1.0)
(= t_1 2.0)
(= dlow_0 0.0)
(= low_0 0.0)
(= t_0 1.0)
(= t_1 2.0)
(= dy_0 0.0)
(= y_0 0.75000000)
(= t_0 1.0)
(= t_1 2.0)
)))
(check-sat)
(get-value (dhigh_0))
(get-value (high_0))
(get-value (t_0))
(get-value (t_1))
(get-value (dlow_0))
(get-value (low_0))
(get-value (t_0))
(get-value (t_1))
(get-value (dy_0))
(get-value (y_0))
(get-value (t_0))
(get-value (t_1))
(push 1)
(assert (and 
(= dhigh_0 0.0)
(= high_0 1.0)
(= t_0 1.0)
(= t_1 2.0)
(= (int-ode_high 0) 1.419175)
))
(assert (and 
(= dlow_0 0.0)
(= low_0 0.0)
(= t_0 1.0)
(= t_1 2.0)
(= (int-ode_low 0) 1.000000)
))
(assert (and 
(= dy_0 1.0)
(= y_0 0.50000000)
(= t_0 1.0)
(= t_1 2.0)
(= (int-ode_y 0) (- 0.886294))
))
(check-sat)
(pop 1)
(assert (not (and 
(= dhigh_0 0.0)
(= high_0 1.0)
(= t_0 1.0)
(= t_1 2.0)
(= dlow_0 0.0)
(= low_0 0.0)
(= t_0 1.0)
(= t_1 2.0)
(= dy_0 1.0)
(= y_0 0.50000000)
(= t_0 1.0)
(= t_1 2.0)
)))
(check-sat)
(get-value (dhigh_0))
(get-value (high_0))
(get-value (t_0))
(get-value (t_1))
(get-value (dlow_0))
(get-value (low_0))
(get-value (t_0))
(get-value (t_1))
(get-value (dy_0))
(get-value (y_0))
(get-value (t_0))
(get-value (t_1))
(push 1)
(assert (and 
(= dhigh_0 0.0)
(= high_0 1.0)
(= t_0 1.0)
(= t_1 2.0)
(= (int-ode_high 0) 1.419175)
))
(assert (and 
(= dlow_0 0.0)
(= low_0 0.0)
(= t_0 1.0)
(= t_1 2.0)
(= (int-ode_low 0) 1.000000)
))
(assert (and 
(= dy_0 2.0)
(= y_0 0.50000000)
(= t_0 1.0)
(= t_1 2.0)
(= (int-ode_y 0) 1.500000)
))
(check-sat)
(pop 1)
(assert (not (and 
(= dhigh_0 0.0)
(= high_0 1.0)
(= t_0 1.0)
(= t_1 2.0)
(= dlow_0 0.0)
(= low_0 0.0)
(= t_0 1.0)
(= t_1 2.0)
(= dy_0 2.0)
(= y_0 0.50000000)
(= t_0 1.0)
(= t_1 2.0)
)))
(check-sat)
(get-value (dhigh_0))
(get-value (high_0))
(get-value (t_0))
(get-value (t_1))
(get-value (dlow_0))
(get-value (low_0))
(get-value (t_0))
(get-value (t_1))
(get-value (dy_0))
(get-value (y_0))
(get-value (t_0))
(get-value (t_1))
(push 1)
(assert (and 
(= dhigh_0 0.0)
(= high_0 1.0)
(= t_0 1.0)
(= t_1 2.0)
(= (int-ode_high 0) 1.419175)
))
(assert (and 
(= dlow_0 0.0)
(= low_0 0.0)
(= t_0 1.0)
(= t_1 2.0)
(= (int-ode_low 0) 1.000000)
))
(assert (and 
(= dy_0 2.0)
(= y_0 1.0)
(= t_0 1.0)
(= t_1 2.0)
(= (int-ode_y 0) 2.000000)
))
(check-sat)
(pop 1)
(assert (not (and 
(= dhigh_0 0.0)
(= high_0 1.0)
(= t_0 1.0)
(= t_1 2.0)
(= dlow_0 0.0)
(= low_0 0.0)
(= t_0 1.0)
(= t_1 2.0)
(= dy_0 2.0)
(= y_0 1.0)
(= t_0 1.0)
(= t_1 2.0)
)))
(check-sat)
(get-value (dhigh_0))
(get-value (high_0))
(get-value (t_0))
(get-value (t_1))
(get-value (dlow_0))
(get-value (low_0))
(get-value (t_0))
(get-value (t_1))
(get-value (dy_0))
(get-value (y_0))
(get-value (t_0))
(get-value (t_1))
(push 1)
(assert (and 
(= dhigh_0 0.0)
(= high_0 1.0)
(= t_0 1.0)
(= t_1 2.0)
(= (int-ode_high 0) 1.419175)
))
(assert (and 
(= dlow_0 0.0)
(= low_0 0.0)
(= t_0 1.0)
(= t_1 2.0)
(= (int-ode_low 0) 1.000000)
))
(assert (and 
(= dy_0 3.0)
(= y_0 0.25000000)
(= t_0 1.0)
(= t_1 2.0)
(= (int-ode_y 0) (- 0.750000))
))
(check-sat)
(pop 1)
(assert (not (and 
(= dhigh_0 0.0)
(= high_0 1.0)
(= t_0 1.0)
(= t_1 2.0)
(= dlow_0 0.0)
(= low_0 0.0)
(= t_0 1.0)
(= t_1 2.0)
(= dy_0 3.0)
(= y_0 0.25000000)
(= t_0 1.0)
(= t_1 2.0)
)))
(check-sat)
(get-value (dhigh_0))
(get-value (high_0))
(get-value (t_0))
(get-value (t_1))
(get-value (dlow_0))
(get-value (low_0))
(get-value (t_0))
(get-value (t_1))
(get-value (dy_0))
(get-value (y_0))
(get-value (t_0))
(get-value (t_1))
(push 1)
(assert (and 
(= dhigh_0 0.0)
(= high_0 1.0)
(= t_0 1.0)
(= t_1 2.0)
(= (int-ode_high 0) 1.419175)
))
(assert (and 
(= dlow_0 0.0)
(= low_0 0.0)
(= t_0 1.0)
(= t_1 2.0)
(= (int-ode_low 0) 1.000000)
))
(assert (and 
(= dy_0 3.0)
(= y_0 1.0)
(= t_0 1.0)
(= t_1 2.0)
(= (int-ode_y 0) (- 0.000000))
))
(check-sat)
(pop 1)
(assert (not (and 
(= dhigh_0 0.0)
(= high_0 1.0)
(= t_0 1.0)
(= t_1 2.0)
(= dlow_0 0.0)
(= low_0 0.0)
(= t_0 1.0)
(= t_1 2.0)
(= dy_0 3.0)
(= y_0 1.0)
(= t_0 1.0)
(= t_1 2.0)
)))
(check-sat)
(get-value (dhigh_0))
(get-value (high_0))
(get-value (t_0))
(get-value (t_1))
(get-value (dlow_0))
(get-value (low_0))
(get-value (t_0))
(get-value (t_1))
(get-value (dy_0))
(get-value (y_0))
(get-value (t_0))
(get-value (t_1))
(push 1)
(assert (and 
(= dhigh_0 0.0)
(= high_0 1.0)
(= t_0 1.0)
(= t_1 2.0)
(= (int-ode_high 0) 1.419175)
))
(assert (and 
(= dlow_0 0.0)
(= low_0 0.0)
(= t_0 1.0)
(= t_1 2.0)
(= (int-ode_low 0) 1.000000)
))
(assert (and 
(= dy_0 2.0)
(= y_0 0.0)
(= t_0 1.0)
(= t_1 2.0)
(= (int-ode_y 0) 1.000000)
))
(check-sat)
(get-value (dhigh_1))
(get-value (high_1))
(get-value (t_1))
(get-value (t_2))
(get-value (dlow_1))
(get-value (low_1))
(get-value (t_1))
(get-value (t_2))
(get-value (dy_1))
(get-value (y_1))
(get-value (t_1))
(get-value (t_2))
(push 1)
(assert (and 
(= dhigh_1 0.0)
(= high_1 1.41917500)
(= t_1 2.0)
(= t_2 3.0)
(= (int-ode_high 1) 2.236618)
))
(assert (and 
(= dlow_1 0.0)
(= low_1 1.0)
(= t_1 2.0)
(= t_2 3.0)
(= (int-ode_low 1) 2.000000)
))
(assert (and 
(= dy_1 3.0)
(= y_1 1.0)
(= t_1 2.0)
(= t_2 3.0)
(= (int-ode_y 1) (- 0.000000))
))
(check-sat)
(pop 1)
(assert (not (and 
(= dhigh_1 0.0)
(= high_1 1.41917500)
(= t_1 2.0)
(= t_2 3.0)
(= dlow_1 0.0)
(= low_1 1.0)
(= t_1 2.0)
(= t_2 3.0)
(= dy_1 3.0)
(= y_1 1.0)
(= t_1 2.0)
(= t_2 3.0)
)))
(check-sat)
(get-value (dhigh_1))
(get-value (high_1))
(get-value (t_1))
(get-value (t_2))
(get-value (dlow_1))
(get-value (low_1))
(get-value (t_1))
(get-value (t_2))
(get-value (dy_1))
(get-value (y_1))
(get-value (t_1))
(get-value (t_2))
(push 1)
(assert (and 
(= dhigh_1 0.0)
(= high_1 1.41917500)
(= t_1 2.0)
(= t_2 3.0)
(= (int-ode_high 1) 2.236618)
))
(assert (and 
(= dlow_1 0.0)
(= low_1 1.0)
(= t_1 2.0)
(= t_2 3.0)
(= (int-ode_low 1) 2.000000)
))
(assert (and 
(= dy_1 2.0)
(= y_1 1.0)
(= t_1 2.0)
(= t_2 3.0)
(= (int-ode_y 1) 2.000000)
))
(check-sat)
(get-value (dhigh_2))
(get-value (high_2))
(get-value (t_2))
(get-value (t_3))
(get-value (dlow_2))
(get-value (low_2))
(get-value (t_2))
(get-value (t_3))
(get-value (dy_2))
(get-value (y_2))
(get-value (t_2))
(get-value (t_3))
(push 1)
(assert (and 
(= dhigh_2 0.0)
(= high_2 2.23661800)
(= t_2 3.0)
(= t_3 4.0)
(= (int-ode_high 2) 6.451506)
))
(assert (and 
(= dlow_2 0.0)
(= low_2 2.0)
(= t_2 3.0)
(= t_3 4.0)
(= (int-ode_low 2) 3.000000)
))
(assert (and 
(= dy_2 0.0)
(= y_2 2.0)
(= t_2 3.0)
(= t_3 4.0)
(= (int-ode_y 2) 5.436564)
))
(check-sat)
(get-value (dhigh_3))
(get-value (high_3))
(get-value (t_3))
(get-value (t_4))
(get-value (dlow_3))
(get-value (low_3))
(get-value (t_3))
(get-value (t_4))
(get-value (dy_3))
(get-value (y_3))
(get-value (t_3))
(get-value (t_4))
(push 1)
(assert (and 
(= dhigh_3 0.0)
(= high_3 6.45150600)
(= t_3 4.0)
(= t_4 5.0)
(= (int-ode_high 3) 7.038486)
))
(assert (and 
(= dlow_3 0.0)
(= low_3 3.0)
(= t_3 4.0)
(= t_4 5.0)
(= (int-ode_low 3) 4.000000)
))
(assert (and 
(= dy_3 0.0)
(= y_3 5.43656400)
(= t_3 4.0)
(= t_4 5.0)
(= (int-ode_y 3) 14.778113)
))
(check-sat)
(pop 1)
(assert (not (and 
(= dhigh_3 0.0)
(= high_3 6.45150600)
(= t_3 4.0)
(= t_4 5.0)
(= dlow_3 0.0)
(= low_3 3.0)
(= t_3 4.0)
(= t_4 5.0)
(= dy_3 0.0)
(= y_3 5.43656400)
(= t_3 4.0)
(= t_4 5.0)
)))
(check-sat)
(get-value (dhigh_3))
(get-value (high_3))
(get-value (t_3))
(get-value (t_4))
(get-value (dlow_3))
(get-value (low_3))
(get-value (t_3))
(get-value (t_4))
(get-value (dy_3))
(get-value (y_3))
(get-value (t_3))
(get-value (t_4))
(push 1)
(assert (and 
(= dhigh_3 0.0)
(= high_3 6.45150600)
(= t_3 4.0)
(= t_4 5.0)
(= (int-ode_high 3) 7.038486)
))
(assert (and 
(= dlow_3 0.0)
(= low_3 3.0)
(= t_3 4.0)
(= t_4 5.0)
(= (int-ode_low 3) 4.000000)
))
(assert (and 
(= dy_3 3.0)
(= y_3 5.43656400)
(= t_3 4.0)
(= t_4 5.0)
(= (int-ode_y 3) 4.436564)
))
(check-sat)
(get-value (dhigh_4))
(get-value (high_4))
(get-value (t_4))
(get-value (t_5))
(get-value (dlow_4))
(get-value (low_4))
(get-value (t_4))
(get-value (t_5))
(get-value (dy_4))
(get-value (y_4))
(get-value (t_4))
(get-value (t_5))
(push 1)
(assert (and 
(= dhigh_4 0.0)
(= high_4 7.03848600)
(= t_4 5.0)
(= t_5 6.0)
(= (int-ode_high 4) 7.218473)
))
(assert (and 
(= dlow_4 0.0)
(= low_4 4.0)
(= t_4 5.0)
(= t_5 6.0)
(= (int-ode_low 4) 5.000000)
))
(assert (and 
(= dy_4 0.0)
(= y_4 4.43656400)
(= t_4 5.0)
(= t_5 6.0)
(= (int-ode_y 4) 12.059833)
))
(check-sat)
(pop 1)
(assert (not (and 
(= dhigh_4 0.0)
(= high_4 7.03848600)
(= t_4 5.0)
(= t_5 6.0)
(= dlow_4 0.0)
(= low_4 4.0)
(= t_4 5.0)
(= t_5 6.0)
(= dy_4 0.0)
(= y_4 4.43656400)
(= t_4 5.0)
(= t_5 6.0)
)))
(check-sat)
(get-value (dhigh_4))
(get-value (high_4))
(get-value (t_4))
(get-value (t_5))
(get-value (dlow_4))
(get-value (low_4))
(get-value (t_4))
(get-value (t_5))
(get-value (dy_4))
(get-value (y_4))
(get-value (t_4))
(get-value (t_5))
(push 1)
(assert (and 
(= dhigh_4 0.0)
(= high_4 7.03848600)
(= t_4 5.0)
(= t_5 6.0)
(= (int-ode_high 4) 7.218474)
))
(assert (and 
(= dlow_4 0.0)
(= low_4 4.0)
(= t_4 5.0)
(= t_5 6.0)
(= (int-ode_low 4) 5.000000)
))
(assert (and 
(= dy_4 3.0)
(= y_4 4.43656400)
(= t_4 5.0)
(= t_5 6.0)
(= (int-ode_y 4) 3.436564)
))
(check-sat)
(pop 1)
(assert (not (and 
(= dhigh_4 0.0)
(= high_4 7.03848600)
(= t_4 5.0)
(= t_5 6.0)
(= dlow_4 0.0)
(= low_4 4.0)
(= t_4 5.0)
(= t_5 6.0)
(= dy_4 3.0)
(= y_4 4.43656400)
(= t_4 5.0)
(= t_5 6.0)
)))
(check-sat)
(get-value (dhigh_4))
(get-value (high_4))
(get-value (t_4))
(get-value (t_5))
(get-value (dlow_4))
(get-value (low_4))
(get-value (t_4))
(get-value (t_5))
(get-value (dy_4))
(get-value (y_4))
(get-value (t_4))
(get-value (t_5))
(push 1)
(assert (and 
(= dhigh_4 0.0)
(= high_4 7.03848600)
(= t_4 5.0)
(= t_5 6.0)
(= (int-ode_high 4) 7.218474)
))
(assert (and 
(= dlow_4 0.0)
(= low_4 4.0)
(= t_4 5.0)
(= t_5 6.0)
(= (int-ode_low 4) 5.000000)
))
(assert (and 
(= dy_4 2.0)
(= y_4 4.43656400)
(= t_4 5.0)
(= t_5 6.0)
(= (int-ode_y 4) 5.436564)
))
(check-sat)
(get-value (dhigh_5))
(get-value (high_5))
(get-value (t_5))
(get-value (t_6))
(get-value (dlow_5))
(get-value (low_5))
(get-value (t_5))
(get-value (t_6))
(get-value (dy_5))
(get-value (y_5))
(get-value (t_5))
(get-value (t_6))
(push 1)
(assert (and 
(= dhigh_5 0.0)
(= high_5 7.21847400)
(= t_5 6.0)
(= t_6 7.0)
(= (int-ode_high 5) 7.428264)
))
(assert (and 
(= dlow_5 0.0)
(= low_5 5.0)
(= t_5 6.0)
(= t_6 7.0)
(= (int-ode_low 5) 6.000000)
))
(assert (and 
(= dy_5 0.0)
(= y_5 5.43656400)
(= t_5 6.0)
(= t_6 7.0)
(= (int-ode_y 5) 14.778115)
))
(check-sat)
(pop 1)
(assert (not (and 
(= dhigh_5 0.0)
(= high_5 7.21847400)
(= t_5 6.0)
(= t_6 7.0)
(= dlow_5 0.0)
(= low_5 5.0)
(= t_5 6.0)
(= t_6 7.0)
(= dy_5 0.0)
(= y_5 5.43656400)
(= t_5 6.0)
(= t_6 7.0)
)))
(check-sat)
(get-value (dhigh_5))
(get-value (high_5))
(get-value (t_5))
(get-value (t_6))
(get-value (dlow_5))
(get-value (low_5))
(get-value (t_5))
(get-value (t_6))
(get-value (dy_5))
(get-value (y_5))
(get-value (t_5))
(get-value (t_6))
(push 1)
(assert (and 
(= dhigh_5 0.0)
(= high_5 7.21847400)
(= t_5 6.0)
(= t_6 7.0)
(= (int-ode_high 5) 7.428265)
))
(assert (and 
(= dlow_5 0.0)
(= low_5 5.0)
(= t_5 6.0)
(= t_6 7.0)
(= (int-ode_low 5) 6.000000)
))
(assert (and 
(= dy_5 3.0)
(= y_5 5.43656400)
(= t_5 6.0)
(= t_6 7.0)
(= (int-ode_y 5) 4.436564)
))
(check-sat)
(pop 1)
(assert (not (and 
(= dhigh_5 0.0)
(= high_5 7.21847400)
(= t_5 6.0)
(= t_6 7.0)
(= dlow_5 0.0)
(= low_5 5.0)
(= t_5 6.0)
(= t_6 7.0)
(= dy_5 3.0)
(= y_5 5.43656400)
(= t_5 6.0)
(= t_6 7.0)
)))
(check-sat)
(get-value (dhigh_5))
(get-value (high_5))
(get-value (t_5))
(get-value (t_6))
(get-value (dlow_5))
(get-value (low_5))
(get-value (t_5))
(get-value (t_6))
(get-value (dy_5))
(get-value (y_5))
(get-value (t_5))
(get-value (t_6))
(push 1)
(assert (and 
(= dhigh_5 0.0)
(= high_5 7.21847400)
(= t_5 6.0)
(= t_6 7.0)
(= (int-ode_high 5) 7.428265)
))
(assert (and 
(= dlow_5 0.0)
(= low_5 5.0)
(= t_5 6.0)
(= t_6 7.0)
(= (int-ode_low 5) 6.000000)
))
(assert (and 
(= dy_5 1.0)
(= y_5 5.43656400)
(= t_5 6.0)
(= t_6 7.0)
(= (int-ode_y 5) 5.128263)
))
(check-sat)
(pop 1)
(assert (not (and 
(= dhigh_5 0.0)
(= high_5 7.21847400)
(= t_5 6.0)
(= t_6 7.0)
(= dlow_5 0.0)
(= low_5 5.0)
(= t_5 6.0)
(= t_6 7.0)
(= dy_5 1.0)
(= y_5 5.43656400)
(= t_5 6.0)
(= t_6 7.0)
)))
(check-sat)
(get-value (dhigh_5))
(get-value (high_5))
(get-value (t_5))
(get-value (t_6))
(get-value (dlow_5))
(get-value (low_5))
(get-value (t_5))
(get-value (t_6))
(get-value (dy_5))
(get-value (y_5))
(get-value (t_5))
(get-value (t_6))
(push 1)
(assert (and 
(= dhigh_5 0.0)
(= high_5 7.21847400)
(= t_5 6.0)
(= t_6 7.0)
(= (int-ode_high 5) 7.428265)
))
(assert (and 
(= dlow_5 0.0)
(= low_5 5.0)
(= t_5 6.0)
(= t_6 7.0)
(= (int-ode_low 5) 6.000000)
))
(assert (and 
(= dy_5 2.0)
(= y_5 5.43656400)
(= t_5 6.0)
(= t_6 7.0)
(= (int-ode_y 5) 6.436564)
))
(check-sat)
(get-value (dhigh_6))
(get-value (high_6))
(get-value (t_6))
(get-value (t_7))
(get-value (dlow_6))
(get-value (low_6))
(get-value (t_6))
(get-value (t_7))
(get-value (dy_6))
(get-value (y_6))
(get-value (t_6))
(get-value (t_7))
(push 1)
(assert (and 
(= dhigh_6 0.0)
(= high_6 7.42826500)
(= t_6 7.0)
(= t_7 8.0)
(= (int-ode_high 6) 7.713232)
))
(assert (and 
(= dlow_6 0.0)
(= low_6 6.0)
(= t_6 7.0)
(= t_7 8.0)
(= (int-ode_low 6) 7.000000)
))
(assert (and 
(= dy_6 0.0)
(= y_6 6.43656400)
(= t_6 7.0)
(= t_7 8.0)
(= (int-ode_y 6) 17.496397)
))
(check-sat)
(pop 1)
(assert (not (and 
(= dhigh_6 0.0)
(= high_6 7.42826500)
(= t_6 7.0)
(= t_7 8.0)
(= dlow_6 0.0)
(= low_6 6.0)
(= t_6 7.0)
(= t_7 8.0)
(= dy_6 0.0)
(= y_6 6.43656400)
(= t_6 7.0)
(= t_7 8.0)
)))
(check-sat)
(get-value (dhigh_6))
(get-value (high_6))
(get-value (t_6))
(get-value (t_7))
(get-value (dlow_6))
(get-value (low_6))
(get-value (t_6))
(get-value (t_7))
(get-value (dy_6))
(get-value (y_6))
(get-value (t_6))
(get-value (t_7))
(push 1)
(assert (and 
(= dhigh_6 0.0)
(= high_6 7.42826500)
(= t_6 7.0)
(= t_7 8.0)
(= (int-ode_high 6) 7.713231)
))
(assert (and 
(= dlow_6 0.0)
(= low_6 6.0)
(= t_6 7.0)
(= t_7 8.0)
(= (int-ode_low 6) 7.000000)
))
(assert (and 
(= dy_6 2.0)
(= y_6 6.43656400)
(= t_6 7.0)
(= t_7 8.0)
(= (int-ode_y 6) 7.436564)
))
(check-sat)
(get-value (dhigh_7))
(get-value (high_7))
(get-value (t_7))
(get-value (t_8))
(get-value (dlow_7))
(get-value (low_7))
(get-value (t_7))
(get-value (t_8))
(get-value (dy_7))
(get-value (y_7))
(get-value (t_7))
(get-value (t_8))
(push 1)
(assert (and 
(= dhigh_7 0.0)
(= high_7 7.71323100)
(= t_7 8.0)
(= t_8 9.0)
(= (int-ode_high 7) 8.458134)
))
(assert (and 
(= dlow_7 0.0)
(= low_7 7.0)
(= t_7 8.0)
(= t_8 9.0)
(= (int-ode_low 7) 8.000000)
))
(assert (and 
(= dy_7 0.0)
(= y_7 7.43656400)
(= t_7 8.0)
(= t_8 9.0)
(= (int-ode_y 7) 20.214679)
))
(check-sat)
(pop 1)
(assert (not (and 
(= dhigh_7 0.0)
(= high_7 7.71323100)
(= t_7 8.0)
(= t_8 9.0)
(= dlow_7 0.0)
(= low_7 7.0)
(= t_7 8.0)
(= t_8 9.0)
(= dy_7 0.0)
(= y_7 7.43656400)
(= t_7 8.0)
(= t_8 9.0)
)))
(check-sat)
(get-value (dhigh_7))
(get-value (high_7))
(get-value (t_7))
(get-value (t_8))
(get-value (dlow_7))
(get-value (low_7))
(get-value (t_7))
(get-value (t_8))
(get-value (dy_7))
(get-value (y_7))
(get-value (t_7))
(get-value (t_8))
(push 1)
(assert (and 
(= dhigh_7 0.0)
(= high_7 7.71323100)
(= t_7 8.0)
(= t_8 9.0)
(= (int-ode_high 7) 8.458136)
))
(assert (and 
(= dlow_7 0.0)
(= low_7 7.0)
(= t_7 8.0)
(= t_8 9.0)
(= (int-ode_low 7) 8.000000)
))
(assert (and 
(= dy_7 3.0)
(= y_7 7.43656400)
(= t_7 8.0)
(= t_8 9.0)
(= (int-ode_y 7) 6.436564)
))
(check-sat)
(pop 1)
(assert (not (and 
(= dhigh_7 0.0)
(= high_7 7.71323100)
(= t_7 8.0)
(= t_8 9.0)
(= dlow_7 0.0)
(= low_7 7.0)
(= t_7 8.0)
(= t_8 9.0)
(= dy_7 3.0)
(= y_7 7.43656400)
(= t_7 8.0)
(= t_8 9.0)
)))
(check-sat)
(get-value (dhigh_7))
(get-value (high_7))
(get-value (t_7))
(get-value (t_8))
(get-value (dlow_7))
(get-value (low_7))
(get-value (t_7))
(get-value (t_8))
(get-value (dy_7))
(get-value (y_7))
(get-value (t_7))
(get-value (t_8))
(push 1)
(assert (and 
(= dhigh_7 0.0)
(= high_7 7.71323100)
(= t_7 8.0)
(= t_8 9.0)
(= (int-ode_high 7) 8.458136)
))
(assert (and 
(= dlow_7 0.0)
(= low_7 7.0)
(= t_7 8.0)
(= t_8 9.0)
(= (int-ode_low 7) 8.000000)
))
(assert (and 
(= dy_7 2.0)
(= y_7 7.43656400)
(= t_7 8.0)
(= t_8 9.0)
(= (int-ode_y 7) 8.436564)
))
(check-sat)
(get-value (dhigh_8))
(get-value (high_8))
(get-value (t_8))
(get-value (t_9))
(get-value (dlow_8))
(get-value (low_8))
(get-value (t_8))
(get-value (t_9))
(get-value (dy_8))
(get-value (y_8))
(get-value (t_8))
(get-value (t_9))
(push 1)
(assert (and 
(= dhigh_8 0.0)
(= high_8 8.45813600)
(= t_8 9.0)
(= t_9 10.0)
(= (int-ode_high 8) 13.395703)
))
(assert (and 
(= dlow_8 0.0)
(= low_8 8.0)
(= t_8 9.0)
(= t_9 10.0)
(= (int-ode_low 8) 9.000000)
))
(assert (and 
(= dy_8 0.0)
(= y_8 8.43656400)
(= t_8 9.0)
(= t_9 10.0)
(= (int-ode_y 8) 22.932959)
))
(check-sat)
(pop 1)
(assert (not (and 
(= dhigh_8 0.0)
(= high_8 8.45813600)
(= t_8 9.0)
(= t_9 10.0)
(= dlow_8 0.0)
(= low_8 8.0)
(= t_8 9.0)
(= t_9 10.0)
(= dy_8 0.0)
(= y_8 8.43656400)
(= t_8 9.0)
(= t_9 10.0)
)))
(check-sat)
(get-value (dhigh_8))
(get-value (high_8))
(get-value (t_8))
(get-value (t_9))
(get-value (dlow_8))
(get-value (low_8))
(get-value (t_8))
(get-value (t_9))
(get-value (dy_8))
(get-value (y_8))
(get-value (t_8))
(get-value (t_9))
(push 1)
(assert (and 
(= dhigh_8 0.0)
(= high_8 8.45813600)
(= t_8 9.0)
(= t_9 10.0)
(= (int-ode_high 8) 13.395703)
))
(assert (and 
(= dlow_8 0.0)
(= low_8 8.0)
(= t_8 9.0)
(= t_9 10.0)
(= (int-ode_low 8) 9.000000)
))
(assert (and 
(= dy_8 3.0)
(= y_8 8.43656400)
(= t_8 9.0)
(= t_9 10.0)
(= (int-ode_y 8) 7.436564)
))
(check-sat)
(pop 1)
(assert (not (and 
(= dhigh_8 0.0)
(= high_8 8.45813600)
(= t_8 9.0)
(= t_9 10.0)
(= dlow_8 0.0)
(= low_8 8.0)
(= t_8 9.0)
(= t_9 10.0)
(= dy_8 3.0)
(= y_8 8.43656400)
(= t_8 9.0)
(= t_9 10.0)
)))
(check-sat)
(get-value (dhigh_8))
(get-value (high_8))
(get-value (t_8))
(get-value (t_9))
(get-value (dlow_8))
(get-value (low_8))
(get-value (t_8))
(get-value (t_9))
(get-value (dy_8))
(get-value (y_8))
(get-value (t_8))
(get-value (t_9))
(push 1)
(assert (and 
(= dhigh_8 0.0)
(= high_8 8.45813600)
(= t_8 9.0)
(= t_9 10.0)
(= (int-ode_high 8) 13.395703)
))
(assert (and 
(= dlow_8 0.0)
(= low_8 8.0)
(= t_8 9.0)
(= t_9 10.0)
(= (int-ode_low 8) 9.000000)
))
(assert (and 
(= dy_8 1.0)
(= y_8 8.43656400)
(= t_8 9.0)
(= t_9 10.0)
(= (int-ode_y 8) 8.225843)
))
(check-sat)
(pop 1)
(assert (not (and 
(= dhigh_8 0.0)
(= high_8 8.45813600)
(= t_8 9.0)
(= t_9 10.0)
(= dlow_8 0.0)
(= low_8 8.0)
(= t_8 9.0)
(= t_9 10.0)
(= dy_8 1.0)
(= y_8 8.43656400)
(= t_8 9.0)
(= t_9 10.0)
)))
(check-sat)
(get-value (dhigh_8))
(get-value (high_8))
(get-value (t_8))
(get-value (t_9))
(get-value (dlow_8))
(get-value (low_8))
(get-value (t_8))
(get-value (t_9))
(get-value (dy_8))
(get-value (y_8))
(get-value (t_8))
(get-value (t_9))
(push 1)
(assert (and 
(= dhigh_8 0.0)
(= high_8 8.45813600)
(= t_8 9.0)
(= t_9 10.0)
(= (int-ode_high 8) 13.395703)
))
(assert (and 
(= dlow_8 0.0)
(= low_8 8.0)
(= t_8 9.0)
(= t_9 10.0)
(= (int-ode_low 8) 9.000000)
))
(assert (and 
(= dy_8 2.0)
(= y_8 8.43656400)
(= t_8 9.0)
(= t_9 10.0)
(= (int-ode_y 8) 9.436564)
))
(check-sat)
(get-value (high_0))
(get-value (high_1))
(get-value (high_2))
(get-value (high_3))
(get-value (high_4))
(get-value (high_5))
(get-value (high_6))
(get-value (high_7))
(get-value (high_8))
(get-value (dhigh_0))
(get-value (dhigh_1))
(get-value (dhigh_2))
(get-value (dhigh_3))
(get-value (dhigh_4))
(get-value (dhigh_5))
(get-value (dhigh_6))
(get-value (dhigh_7))
(get-value (dhigh_8))
(get-value (low_0))
(get-value (low_1))
(get-value (low_2))
(get-value (low_3))
(get-value (low_4))
(get-value (low_5))
(get-value (low_6))
(get-value (low_7))
(get-value (low_8))
(get-value (dlow_0))
(get-value (dlow_1))
(get-value (dlow_2))
(get-value (dlow_3))
(get-value (dlow_4))
(get-value (dlow_5))
(get-value (dlow_6))
(get-value (dlow_7))
(get-value (dlow_8))
(get-value (y_0))
(get-value (y_1))
(get-value (y_2))
(get-value (y_3))
(get-value (y_4))
(get-value (y_5))
(get-value (y_6))
(get-value (y_7))
(get-value (y_8))
(get-value (dy_0))
(get-value (dy_1))
(get-value (dy_2))
(get-value (dy_3))
(get-value (dy_4))
(get-value (dy_5))
(get-value (dy_6))
(get-value (dy_7))
(get-value (dy_8))
(exit)
